NAME: eil51
COMMENT: Tabu Search - tabusSize: 0.3 - neighborSize: 3
DIMENSION: 51
DISTANCE: 427.0
EXECUTION_TIME: 1.098
TOUR_SECTION: 
32 1 22 2 16 21 29 20 35 36 3 28 31 8 26 7 43 24 23 48 6 27 51 46 12 47 4 18 14 25 13 41 40 19 42 44 17 37 15 45 33 39 10 30 34 50 9 49 5 38 11 
EOF